NAME : portcgen-16-5
COMMENT : portcgen N=16, seed=5
TYPE : TSP
DIMENSION : 16
EDGE_WEIGHT_TYPE : EUC_2D
NODE_COORD_SECTION
1 182224 20801
2 77304 -19802
3 36839 55723
4 -269584 350186
5 -286303 37685
6 23014 -44870
7 170147 217293
8 230952 246770
9 40852 -266840
10 255872 11337
11 27217 -182178
12 144901 224916
13 -119810 415802
14 -58468 201827
15 -84782 92386
16 475987 315327
